50
633
10
29
26
18
8
80
64
28
32
3
9
0 1
0 2
0 3
0 4
0 7
0 8
0 9
0 12
0 13
0 14
0 15
0 16
0 20
0 22
0 24
0 27
0 28
0 30
0 32
0 34
0 39
0 42
0 44
1 2
1 3
1 5
1 6
1 9
1 10
1 12
1 16
1 17
1 18
1 19
1 20
1 22
1 23
1 24
1 25
1 26
1 27
1 29
1 30
1 34
1 39
1 42
1 43
1 44
1 47
1 48
2 3
2 6
2 7
2 8
2 9
2 18
2 19
2 21
2 22
2 23
2 24
2 25
2 28
2 29
2 33
2 35
2 37
2 40
2 44
2 47
3 4
3 5
3 7
3 8
3 9
3 10
3 12
3 13
3 15
3 21
3 25
3 26
3 28
3 29
3 30
3 38
3 42
3 44
3 45
3 46
3 47
3 48
3 49
4 5
4 7
4 11
4 12
4 13
4 15
4 16
4 17
4 24
4 27
4 29
4 31
4 34
4 35
4 36
4 38
4 39
4 41
4 42
4 43
4 44
4 45
4 48
5 7
5 8
5 12
5 13
5 16
5 17
5 18
5 21
5 24
5 25
5 28
5 31
5 32
5 36
5 40
5 41
5 44
5 46
5 47
6 9
6 11
6 18
6 19
6 20
6 22
6 25
6 27
6 28
6 33
6 34
6 35
6 36
6 38
6 44
6 45
6 47
7 11
7 12
7 14
7 15
7 16
7 20
7 21
7 22
7 23
7 29
7 34
7 38
7 43
7 44
8 9
8 10
8 12
8 13
8 14
8 15
8 16
8 19
8 20
8 21
8 23
8 24
8 25
8 27
8 30
8 32
8 34
8 37
8 38
8 40
8 41
8 43
8 45
8 46
8 48
9 10
9 11
9 12
9 13
9 14
9 15
9 16
9 19
9 21
9 22
9 23
9 24
9 25
9 26
9 28
9 29
9 30
9 31
9 34
9 37
9 39
9 40
9 41
9 43
9 46
9 47
9 49
10 11
10 12
10 13
10 14
10 16
10 17
10 19
10 22
10 23
10 24
10 25
10 26
10 27
10 28
10 30
10 31
10 36
10 38
10 39
10 41
10 42
10 43
10 45
10 47
10 49
11 13
11 14
11 15
11 16
11 17
11 18
11 19
11 20
11 21
11 22
11 23
11 26
11 27
11 30
11 32
11 33
11 36
11 37
11 38
11 40
11 44
11 46
11 49
12 14
12 18
12 22
12 23
12 27
12 29
12 31
12 35
12 38
12 40
12 42
12 44
12 46
13 14
13 15
13 17
13 20
13 21
13 22
13 25
13 27
13 28
13 29
13 34
13 35
13 36
13 38
13 42
13 43
13 49
14 15
14 16
14 19
14 21
14 24
14 25
14 26
14 27
14 31
14 33
14 34
14 40
14 43
14 44
14 49
15 23
15 25
15 26
15 27
15 28
15 29
15 31
15 34
15 35
15 37
15 39
15 41
15 44
16 18
16 19
16 20
16 21
16 22
16 23
16 25
16 26
16 28
16 31
16 32
16 35
16 37
16 38
16 41
16 45
16 47
16 48
16 49
17 18
17 19
17 20
17 21
17 22
17 24
17 25
17 26
17 27
17 28
17 29
17 30
17 31
17 32
17 33
17 35
17 37
17 38
17 39
17 40
17 43
17 44
17 45
17 47
17 48
18 19
18 20
18 21
18 22
18 23
18 25
18 26
18 27
18 29
18 34
18 35
18 38
18 39
18 43
18 44
18 45
18 46
18 47
18 49
19 22
19 23
19 24
19 25
19 26
19 27
19 29
19 31
19 32
19 33
19 34
19 38
19 39
19 44
19 45
19 47
20 22
20 32
20 33
20 36
20 38
20 40
20 43
20 46
20 49
21 23
21 25
21 28
21 29
21 31
21 33
21 34
21 36
21 37
21 43
21 45
21 47
21 49
22 23
22 25
22 26
22 27
22 29
22 31
22 32
22 33
22 35
22 37
22 38
22 39
22 40
22 41
22 42
22 44
23 24
23 25
23 26
23 27
23 29
23 31
23 32
23 33
23 35
23 37
23 40
23 41
23 42
23 43
23 47
23 48
23 49
24 26
24 28
24 29
24 35
24 38
24 39
24 40
24 42
24 44
24 46
24 48
25 26
25 28
25 29
25 30
25 31
25 32
25 37
25 38
25 39
25 42
25 43
25 44
25 45
25 46
25 47
25 48
26 29
26 30
26 33
26 34
26 35
26 37
26 40
26 41
26 42
26 46
26 47
27 28
27 29
27 30
27 31
27 34
27 35
27 37
27 38
27 39
27 41
27 45
27 46
27 47
27 48
27 49
28 29
28 31
28 32
28 33
28 34
28 35
28 36
28 37
28 38
28 39
28 41
28 42
28 43
28 44
28 45
28 47
28 49
29 31
29 34
29 37
29 38
29 39
29 42
29 43
29 48
30 32
30 33
30 34
30 35
30 36
30 39
30 40
30 42
30 44
30 45
30 46
30 47
30 48
30 49
31 32
31 34
31 35
31 36
31 37
31 39
31 40
31 42
31 44
31 45
32 35
32 36
32 37
32 39
32 41
32 42
32 45
32 47
32 49
33 35
33 37
33 41
33 42
33 45
33 47
34 35
34 36
34 37
34 38
34 41
34 42
34 43
34 44
34 49
35 39
35 40
35 41
35 42
35 43
35 44
35 45
35 46
35 48
35 49
36 37
36 40
36 42
36 43
36 44
36 45
36 47
36 49
37 39
37 41
37 45
37 47
37 48
37 49
38 39
38 40
38 43
38 49
39 41
39 42
39 46
39 47
39 49
40 45
40 47
40 48
41 45
42 43
42 47
42 48
42 49
43 44
43 45
43 48
44 46
45 46
45 48
46 49
48 49
8 33 31 35 13
10 41 22 16 15
14 18 4 40 28
32 0 26 45 21
36 49 34 5 11
44 12 29 1 25
17 46 3 24 20
48 30 39 42 23
27 43 47 2 6
9 38 19 37 7
